(set-info :source |printed by MathSAT|)
(declare-fun |.x{125}| () Int)
(declare-fun |.y{10}| () Int)
(declare-fun |.x{129}| () Int)
(declare-fun |.y{11}| () Int)
(declare-fun |.x{135}| () Int)
(declare-fun |.y{12}| () Int)
(declare-fun |.y{9}| () Int)
(declare-fun |.y{13}| () Int)
(declare-fun |.x{132}| () (Array Int Int))
(declare-fun |.y{14}| () (Array Int Int))
(declare-fun |.x{130}| () Int)
(declare-fun |.y{15}| () Int)
(declare-fun |.x{123}| () Int)
(declare-fun |.y{16}| () Int)
(declare-fun |.x{124}| () Int)
(declare-fun |.y{17}| () Int)
(declare-fun |.loc{4}| () Bool)
(declare-fun |.loc{7}| () Bool)
(declare-fun |.loc{5}| () Bool)
(declare-fun |.loc{8}| () Bool)
(declare-fun |.loc{6}| () Bool)
(declare-fun |.loc{9}| () Bool)
(declare-fun |.x{133}| () Int)
(declare-fun |.x{131}| () Int)
(declare-fun |.x{128}| () Int)
(define-fun .def_26 () Bool (! |.loc{5}| :next |.loc{8}|))
(define-fun .def_57 () Bool (not .def_26))
(define-fun .def_24 () Bool (! |.loc{4}| :next |.loc{7}|))
(define-fun .def_31 () Bool (not .def_24))
(define-fun .def_58 () Bool (and .def_31 .def_57))
(define-fun .def_28 () Bool (! |.loc{6}| :next |.loc{9}|))
(define-fun .def_54 () Bool (not .def_28))
(define-fun .def_244 () Bool (! (and .def_54 .def_58) :init true))
(define-fun .def_16 () (Array Int Int) (! |.x{132}| :next |.y{14}|))
(define-fun .def_179 () Int (select .def_16 |.x{133}|))
(define-fun .def_12 () Int (! |.x{135}| :next |.y{12}|))
(define-fun .def_180 () Bool (<= .def_12 .def_179))
(define-fun .def_227 () Bool (not .def_180))
(define-fun .def_94 () Int (* (- 1) |.x{131}|))
(define-fun .def_98 () Int (+ .def_94 |.x{128}|))
(define-fun .def_10 () Int (! |.x{129}| :next |.y{11}|))
(define-fun .def_159 () Int (+ .def_10 .def_98))
(define-fun .def_160 () Bool (= .def_159 0))
(define-fun .def_223 () Bool (and .def_31 .def_160))
(define-fun .def_224 () Bool (and .def_57 .def_223))
(define-fun .def_110 () Int (* (- 1) |.x{133}|))
(define-fun .def_113 () Int (+ .def_110 |.x{131}|))
(define-fun .def_18 () Int (! |.x{130}| :next |.y{15}|))
(define-fun .def_171 () Int (+ .def_18 .def_113))
(define-fun .def_172 () Bool (= .def_171 0))
(define-fun .def_225 () Bool (and .def_172 .def_224))
(define-fun .def_8 () Int (! |.x{125}| :next |.y{10}|))
(define-fun .def_175 () Bool (<= .def_8 .def_18))
(define-fun .def_176 () Bool (not .def_175))
(define-fun .def_226 () Bool (and .def_176 .def_225))
(define-fun .def_228 () Bool (and .def_226 .def_227))
(define-fun .def_229 () Bool (and |.loc{7}| .def_228))
(define-fun .def_104 () Bool (<= |.x{131}| 0))
(define-fun .def_105 () Bool (not .def_104))
(define-fun .def_230 () Bool (and .def_105 .def_229))
(define-fun .def_187 () Bool (<= .def_10 0))
(define-fun .def_188 () Bool (or .def_105 .def_187))
(define-fun .def_231 () Bool (and .def_188 .def_230))
(define-fun .def_117 () Bool (<= |.x{133}| 0))
(define-fun .def_118 () Bool (not .def_117))
(define-fun .def_119 () Bool (or .def_104 .def_118))
(define-fun .def_232 () Bool (and .def_119 .def_231))
(define-fun .def_233 () Bool (and .def_28 .def_232))
(define-fun .def_20 () Int (! |.x{123}| :next |.y{16}|))
(define-fun .def_210 () Bool (<= .def_20 .def_18))
(define-fun .def_211 () Bool (not .def_210))
(define-fun .def_141 () Bool (= |.y{15}| 0))
(define-fun .def_212 () Bool (and .def_141 .def_211))
(define-fun .def_33 () Bool (= .def_8 |.y{10}|))
(define-fun .def_213 () Bool (and .def_33 .def_212))
(define-fun .def_35 () Bool (= .def_10 |.y{11}|))
(define-fun .def_214 () Bool (and .def_35 .def_213))
(define-fun .def_37 () Bool (= .def_12 |.y{12}|))
(define-fun .def_215 () Bool (and .def_37 .def_214))
(define-fun .def_39 () Bool (= .def_16 |.y{14}|))
(define-fun .def_216 () Bool (and .def_39 .def_215))
(define-fun .def_44 () Bool (= .def_18 |.y{16}|))
(define-fun .def_217 () Bool (and .def_44 .def_216))
(define-fun .def_209 () Bool (= .def_20 |.y{17}|))
(define-fun .def_218 () Bool (and .def_209 .def_217))
(define-fun .def_66 () Bool (not |.loc{7}|))
(define-fun .def_219 () Bool (and .def_66 .def_218))
(define-fun .def_220 () Bool (and .def_54 .def_219))
(define-fun .def_221 () Bool (and .def_24 .def_220))
(define-fun .def_222 () Bool (and .def_26 .def_221))
(define-fun .def_234 () Bool (or .def_222 .def_233))
(define-fun .def_235 () Bool (and |.loc{9}| .def_234))
(define-fun .def_50 () Bool (not |.loc{8}|))
(define-fun .def_236 () Bool (and .def_50 .def_235))
(define-fun .def_22 () Int (! |.x{124}| :next |.y{17}|))
(define-fun .def_206 () Bool (= |.y{16}| .def_22))
(define-fun .def_198 () Int (* (- 1) .def_20))
(define-fun .def_199 () Int (+ |.y{15}| .def_198))
(define-fun .def_200 () Bool (= .def_199 1))
(define-fun .def_30 () Bool (not |.loc{9}|))
(define-fun .def_59 () Bool (and .def_30 .def_58))
(define-fun .def_193 () Bool (and .def_33 .def_59))
(define-fun .def_194 () Bool (and .def_35 .def_193))
(define-fun .def_195 () Bool (and .def_37 .def_194))
(define-fun .def_201 () Bool (and .def_195 .def_200))
(define-fun .def_202 () Bool (and .def_39 .def_201))
(define-fun .def_203 () Bool (and .def_175 .def_202))
(define-fun .def_204 () Bool (and |.loc{7}| .def_203))
(define-fun .def_205 () Bool (and |.loc{8}| .def_204))
(define-fun .def_207 () Bool (and .def_205 .def_206))
(define-fun .def_208 () Bool (and .def_28 .def_207))
(define-fun .def_237 () Bool (or .def_208 .def_236))
(define-fun .def_182 () Bool (= .def_22 |.y{17}|))
(define-fun .def_164 () Int (* (- 1) |.y{15}|))
(define-fun .def_165 () Int (+ .def_18 .def_164))
(define-fun .def_166 () Bool (= .def_165 (- 1)))
(define-fun .def_161 () Bool (and .def_58 .def_160))
(define-fun .def_162 () Bool (and .def_33 .def_161))
(define-fun .def_163 () Bool (and .def_35 .def_162))
(define-fun .def_167 () Bool (and .def_163 .def_166))
(define-fun .def_168 () Bool (and .def_37 .def_167))
(define-fun .def_173 () Bool (and .def_168 .def_172))
(define-fun .def_174 () Bool (and .def_39 .def_173))
(define-fun .def_177 () Bool (and .def_174 .def_176))
(define-fun .def_91 () Bool (= .def_20 |.y{16}|))
(define-fun .def_178 () Bool (and .def_91 .def_177))
(define-fun .def_181 () Bool (and .def_178 .def_180))
(define-fun .def_183 () Bool (and .def_181 .def_182))
(define-fun .def_184 () Bool (and |.loc{9}| .def_183))
(define-fun .def_185 () Bool (and .def_50 .def_184))
(define-fun .def_186 () Bool (and .def_105 .def_185))
(define-fun .def_189 () Bool (and .def_186 .def_188))
(define-fun .def_190 () Bool (and .def_66 .def_189))
(define-fun .def_191 () Bool (and .def_119 .def_190))
(define-fun .def_192 () Bool (and .def_28 .def_191))
(define-fun .def_238 () Bool (or .def_192 .def_237))
(define-fun .def_14 () Int (! |.y{9}| :next |.y{13}|))
(define-fun .def_152 () Bool (= |.y{12}| .def_14))
(define-fun .def_149 () Bool (= |.y{11}| .def_12))
(define-fun .def_146 () Bool (= |.y{10}| .def_10))
(define-fun .def_142 () Bool (and .def_31 .def_141))
(define-fun .def_143 () Bool (and .def_30 .def_142))
(define-fun .def_46 () Bool (<= .def_18 .def_8))
(define-fun .def_144 () Bool (and .def_46 .def_143))
(define-fun .def_145 () Bool (and .def_39 .def_144))
(define-fun .def_147 () Bool (and .def_145 .def_146))
(define-fun .def_148 () Bool (and .def_44 .def_147))
(define-fun .def_150 () Bool (and .def_148 .def_149))
(define-fun .def_151 () Bool (and |.loc{7}| .def_150))
(define-fun .def_153 () Bool (and .def_151 .def_152))
(define-fun .def_154 () Bool (and |.loc{8}| .def_153))
(define-fun .def_155 () Bool (and .def_54 .def_154))
(define-fun .def_156 () Bool (and .def_26 .def_155))
(define-fun .def_239 () Bool (or .def_156 .def_238))
(define-fun .def_136 () Bool (= |.y{15}| .def_20))
(define-fun .def_133 () Bool (= |.y{13}| .def_18))
(define-fun .def_127 () Int (* (- 1) |.y{10}|))
(define-fun .def_128 () Int (+ .def_8 .def_127))
(define-fun .def_129 () Bool (= .def_128 (- 1)))
(define-fun .def_75 () Bool (and .def_30 .def_57))
(define-fun .def_125 () Bool (and .def_35 .def_75))
(define-fun .def_126 () Bool (and .def_37 .def_125))
(define-fun .def_130 () Bool (and .def_126 .def_129))
(define-fun .def_88 () Bool (<= .def_10 .def_14))
(define-fun .def_131 () Bool (and .def_88 .def_130))
(define-fun .def_132 () Bool (and .def_39 .def_131))
(define-fun .def_134 () Bool (and .def_132 .def_133))
(define-fun .def_135 () Bool (and |.loc{8}| .def_134))
(define-fun .def_137 () Bool (and .def_135 .def_136))
(define-fun .def_138 () Bool (and .def_66 .def_137))
(define-fun .def_139 () Bool (and .def_54 .def_138))
(define-fun .def_140 () Bool (and .def_24 .def_139))
(define-fun .def_240 () Bool (or .def_140 .def_239))
(define-fun .def_123 () Bool (= .def_18 |.y{15}|))
(define-fun .def_114 () Int (+ .def_14 .def_113))
(define-fun .def_115 () Bool (= .def_114 0))
(define-fun .def_103 () Bool (<= .def_12 0))
(define-fun .def_106 () Bool (or .def_103 .def_105))
(define-fun .def_99 () Int (+ .def_12 .def_98))
(define-fun .def_100 () Bool (= .def_99 0))
(define-fun .def_89 () Bool (not .def_88))
(define-fun .def_84 () (Array Int Int) (store .def_16 |.x{133}| .def_18))
(define-fun .def_85 () Bool (= |.y{14}| .def_84))
(define-fun .def_78 () Int (* (- 1) |.y{13}|))
(define-fun .def_79 () Int (+ .def_14 .def_78))
(define-fun .def_80 () Bool (= .def_79 (- 1)))
(define-fun .def_76 () Bool (and .def_33 .def_75))
(define-fun .def_81 () Bool (and .def_76 .def_80))
(define-fun .def_82 () Bool (and .def_35 .def_81))
(define-fun .def_86 () Bool (and .def_82 .def_85))
(define-fun .def_87 () Bool (and .def_37 .def_86))
(define-fun .def_90 () Bool (and .def_87 .def_89))
(define-fun .def_92 () Bool (and .def_90 .def_91))
(define-fun .def_101 () Bool (and .def_92 .def_100))
(define-fun .def_102 () Bool (and |.loc{7}| .def_101))
(define-fun .def_107 () Bool (and .def_102 .def_106))
(define-fun .def_108 () Bool (and .def_50 .def_107))
(define-fun .def_109 () Bool (and .def_105 .def_108))
(define-fun .def_116 () Bool (and .def_109 .def_115))
(define-fun .def_120 () Bool (and .def_116 .def_119))
(define-fun .def_121 () Bool (and .def_54 .def_120))
(define-fun .def_122 () Bool (and .def_24 .def_121))
(define-fun .def_124 () Bool (and .def_122 .def_123))
(define-fun .def_241 () Bool (or .def_124 .def_240))
(define-fun .def_72 () Bool (<= |.y{12}| 0))
(define-fun .def_73 () Bool (not .def_72))
(define-fun .def_68 () Bool (<= |.y{15}| 0))
(define-fun .def_69 () Bool (not .def_68))
(define-fun .def_63 () Bool (<= |.y{11}| 0))
(define-fun .def_64 () Bool (not .def_63))
(define-fun .def_61 () Bool (= |.y{10}| 0))
(define-fun .def_60 () Bool (and |.loc{8}| .def_59))
(define-fun .def_62 () Bool (and .def_60 .def_61))
(define-fun .def_65 () Bool (and .def_62 .def_64))
(define-fun .def_67 () Bool (and .def_65 .def_66))
(define-fun .def_70 () Bool (and .def_67 .def_69))
(define-fun .def_71 () Bool (and .def_54 .def_70))
(define-fun .def_74 () Bool (and .def_71 .def_73))
(define-fun .def_242 () Bool (or .def_74 .def_241))
(define-fun .def_52 () Bool (= .def_14 |.y{15}|))
(define-fun .def_47 () Bool (not .def_46))
(define-fun .def_42 () Bool (= |.y{13}| 0))
(define-fun .def_32 () Bool (and .def_30 .def_31))
(define-fun .def_34 () Bool (and .def_32 .def_33))
(define-fun .def_36 () Bool (and .def_34 .def_35))
(define-fun .def_38 () Bool (and .def_36 .def_37))
(define-fun .def_40 () Bool (and .def_38 .def_39))
(define-fun .def_43 () Bool (and .def_40 .def_42))
(define-fun .def_45 () Bool (and .def_43 .def_44))
(define-fun .def_48 () Bool (and .def_45 .def_47))
(define-fun .def_49 () Bool (and |.loc{7}| .def_48))
(define-fun .def_51 () Bool (and .def_49 .def_50))
(define-fun .def_53 () Bool (and .def_51 .def_52))
(define-fun .def_55 () Bool (and .def_53 .def_54))
(define-fun .def_56 () Bool (and .def_26 .def_55))
(define-fun .def_243 () Bool (! (or .def_56 .def_242) :trans true))
(define-fun .def_245 () Bool (and .def_24 .def_57))
(define-fun .def_246 () Bool (and .def_28 .def_245))
(define-fun .def_247 () Bool (! (not .def_246) :invar-property 0))
(assert true)
